105,109
127,137,142,143
3
5
7
12,21,22,55,70
13
29,39,59,134
15
16
43,68
23
53,60
16,65
50,107
57,140
9,17,34,40,54,67,87,91,98,128,136,145,147,148
36
77,102
41
24,30
1,47
4,20
74,123
48
50
84,116
5,64,100
56
57
60
61
63
64
2,11,26,32,35,46,49,58,62,75,85,120,131,135
18,130
25,125,144,154
88,123
68
38,51,71
72
132,153
43,129
45,52,92
78
79
81
41,130
83
82
86
110,141
8,74
31,37
80,124
33,94,133
66,121
42,114
44,61
14,41
99
43,102,115,149
100
15,43,63,68,90,104,107,109,121
102
103
106
63,82
107
109
69,151
112
28,76
10,38,51,71
3,118,126,152
117
118
121
93,96
122
95
124
126
130
19,146
111,124
44,61,108
138
139
140
141
113,117
6,146
44,73
43,146
27,107
149
150
89,97
152
93,101,121
0,15
68,78
43,119
